(set-logic QF_S)
(declare-fun var0 () String)
(declare-fun var1 () String)
(declare-fun var2 () String)
(declare-fun var3 () Int)
(declare-fun var4 () Int)
(declare-fun var5 () Int)
(declare-fun var6 () Bool)
(declare-fun var7 () Bool)
(declare-fun var8 () Bool)
(assert (<= (str.indexof "J{GE6k-Wee" var0 var4) (str.len var2)))
(assert (< (str.indexof var2 var2 3) (str.indexof var1 var2 var3)))
(assert (not (>= (str.indexof var1 var0 var5) (str.len "!As=LUba|*"))))
(assert (< var4 10))
(check-sat)